p cnf 7230 17
4 -7040 0
-4 -5653 -7015 7039 0
-4126 -6995 -7037 0
-4124 -6993 -7035 0
4126 -7038 0
4124 -7036 0
5653 -7040 0
-7039 7040 0
7037 7038 0
7035 7036 0
6995 -7038 0
6993 -7036 0
7015 -7040 0
-4 -5831 -7013 7042 0
7013 -7042 0
5831 -7042 0
4 -7042 0
